c preprocessed version of WorldMap, 22 vertices, 52 edges
p td 22 52
0 1
0 4
18 0
5 0
2 1
1 4
2 3
2 4
16 2
3 4
5 3
16 3
5 4
5 6
5 18
5 15
5 16
6 7
6 11
18 6
10 6
17 6
15 6
8 7
9 7
10 7
17 7
8 9
8 14
8 17
10 9
14 9
10 11
10 12
10 13
14 10
12 11
15 11
13 12
14 13
15 16
17 18
19 21
19 0
19 1
19 20
20 21
20 14
20 13
20 12
21 8
21 17
